



8 8
5 17 3 19 4 1 0 14 7 11 1 18 6 8 2 11
4 1 6 13 5 2 2 10 3 19 7 2 1 3 0 13
6 8 5 3 1 11 7 1 0 10 4 19 3 7 2 3
1 8 0 8 6 17 7 16 3 6 5 18 4 11 2 17
4 6 0 14 5 18 3 19 1 2 2 11 7 1 6 8
1 1 3 18 7 15 6 14 5 12 4 7 0 14 2 16
2 10 7 3 1 8 3 6 4 5 6 6 0 9 5 14
3 18 0 18 5 16 6 14 4 9 2 15 7 14 1 17
